input/five.in
5
17925 32631
20797 9124
6821 18004
47416 27860
19030 16721
